This is Ipopt version 3.14.16, running with linear solver MUMPS 5.7.3.

Number of nonzeros in equality constraint Jacobian...:        0
Number of nonzeros in inequality constraint Jacobian.:     1144
Number of nonzeros in Lagrangian Hessian.............:        0

Total number of variables............................:       22
                     variables with only lower bounds:        0
                variables with lower and upper bounds:       22
                     variables with only upper bounds:        0
Total number of equality constraints.................:        0
Total number of inequality constraints...............:       52
        inequality constraints with only lower bounds:        0
   inequality constraints with lower and upper bounds:        0
        inequality constraints with only upper bounds:       52

iter    objective    inf_pr   inf_du lg(mu)  ||d||  lg(rg) alpha_du alpha_pr  ls
   0  1.7862532e-03 7.86e-01 7.54e-01   0.0 0.00e+00    -  0.00e+00 0.00e+00   0
   1  5.9590389e-03 0.00e+00 1.28e+00  -1.4 8.25e-01    -  5.51e-01 9.42e-01f  1
   2  6.0341938e-03 0.00e+00 5.35e-02  -6.2 1.00e-02    -  9.79e-01 1.00e+00h  1
   3  6.0047047e-03 0.00e+00 5.79e-03  -7.9 4.61e-03    -  9.83e-01 1.00e+00h  1
   4  5.7573747e-03 1.32e-03 5.91e-04  -5.1 1.42e-01    -  8.32e-01 1.00e+00h  1
   5  5.6546960e-03 1.47e-02 1.71e-04  -5.2 3.08e-01    -  8.11e-01 1.00e+00h  1
   6  5.7361043e-03 2.61e-04 2.88e-05  -5.3 9.39e-02    -  9.72e-01 1.00e+00h  1
   7  5.7225315e-03 3.84e-04 2.08e-05  -6.5 4.90e-02    -  9.94e-01 1.00e+00h  1
   8  5.7155943e-03 3.99e-04 1.44e-05  -7.4 8.09e-02    -  1.00e+00 1.00e+00h  1
   9  5.7175803e-03 6.23e-06 8.03e-06  -8.0 2.56e-02    -  9.99e-01 1.00e+00h  1

Number of Iterations....: 9

                                   (scaled)                 (unscaled)
Objective...............:   5.7175802787311101e-03    5.7175802787311101e-03
Dual infeasibility......:   8.0296781980140754e-06    8.0296781980140754e-06
Constraint violation....:   6.2278415635055974e-06    6.2278415635055974e-06
Variable bound violation:   0.0000000000000000e+00    0.0000000000000000e+00
Complementarity.........:   6.8976297770376214e-08    6.8976297770376214e-08
Overall NLP error.......:   8.0296781980140754e-06    8.0296781980140754e-06


Number of objective function evaluations             = 10
Number of objective gradient evaluations             = 10
Number of equality constraint evaluations            = 0
Number of inequality constraint evaluations          = 10
Number of equality constraint Jacobian evaluations   = 0
Number of inequality constraint Jacobian evaluations = 10
Number of Lagrangian Hessian evaluations             = 0
Total seconds in IPOPT                               = 8.598

EXIT: Optimal Solution Found.
